15 
8 
16 
7 
8 
6 
7 
7 
7 
9 
7 
7 
6 
6 
10 
8 
7 
7 
13 
9 
8 
6 
7 
9 
5 
9 
6 
10 
10 
10 
7 
11 
9 
3 
7 
7 
14 
5 
10 
8 
6 
9 
4 
6 
11 
5 
3 
8 
12 
14 
9 
8 
7 
9 
11 
15 
15 
10 
8 
12 
8 
8 
8 
5 
11 
10 
5 
9 
9 
5 
8 
5 
4 
11 
4 
4 
3 
7 
9 
13 
5 
8 
7 
5 
6 
8 
13 
10 
6 
6 
6 
4 
8 
6 
7 
6 
10 
8 
11 
13 
